TOUR_SECTION
1
190
118
42
29
146
168
95
18
145
34
102
37
188
23
69
180
115
173
98
129
142
48
181
121
74
171
150
81
191
33
198
47
133
3
91
163
192
197
61
141
159
132
77
183
149
12
30
92
50
58
143
6
32
67
201
54
46
108
166
13
125
167
110
78
101
59
36
10
89
176
79
65
117
62
24
26
134
20
88
86
131
66
14
100
175
70
64
186
153
85
158
104
107
90
27
57
84
155
94
185
128
162
114
71
161
120
63
60
51
4
68
116
122
21
25
93
15
137
28
41
160
124
56
82
73
151
75
123
99
154
45
152
138
196
8
140
195
165
83
35
111
22
106
127
72
39
193
2
174
11
119
9
17
157
31
38
182
52
113
147
19
187
55
5
87
97
40
177
148
16
178
169
105
199
200
53
126
164
43
184
179
194
76
189
136
80
7
135
112
96
44
139
103
109
130
170
144
156
172
49
-1
EOF